n= 1
m= 50
1000
155	24	4
84	49	7
76	56	8
40	42	7
156	8	1
113	10	2
187	54	9
137	45	9
49	56	7
117	40	5
34	63	9
113	8	1
91	42	7
199	72	9
183	18	3
152	42	6
105	54	9
21	30	5
169	48	8
91	16	2
187	56	7
193	24	3
16	35	5
191	12	2
176	42	6
134	7	1
27	12	2
134	36	6
120	7	1
94	42	6
51	30	6
196	18	2
53	30	6
25	27	3
102	24	4
154	72	8
64	72	8
10	40	8
12	8	1
97	81	9
118	14	2
71	8	1
88	24	4
186	54	9
89	15	3
185	63	7
188	30	5
178	12	2
32	32	4
151	45	5
